param m :=4;
param n :=3;   
param delta :=0;    
param R : 1 2 3:= 
          1  5.51 4.8 2.56
          2  -1.24 0.61 0.16
          3 5.46 3.6 -1.64
          4 -1.7 -1.3 0.3; 

param p := 
          1  0.25
          2 0.25
          3 0.25
          4 0.25;
          
